; QueryHash 2740690670357972202
(set-logic QF_AUFBV )
(declare-fun arg00 () (Array (_ BitVec 32) (_ BitVec 8) ) )
(assert (=  false (=  (_ bv0 8) (select  arg00 (_ bv1 32) ) ) ) )
(check-sat)
(exit)

; Assignments 1490 ms
; { "arg00": [0, 0, 0, 0, 0, 0, 1, 0, 0, 0, 0] }
; { "arg00": [0, 0, 0, 0, 0, 1, 0, 0, 0, 0, 0] }
; { "arg00": [0, 0, 0, 0, 0, 101, 0, 0, 0, 0, 0] }
; { "arg00": [0, 0, 0, 0, 0, 110, 0, 0, 0, 0, 0] }
; { "arg00": [0, 0, 0, 0, 0, 112, 0, 0, 0, 0, 0] }
; { "arg00": [0, 0, 0, 0, 0, 69, 0, 0, 0, 0, 0] }
; { "arg00": [0, 0, 0, 0, 1, 0, 0, 0, 0, 0, 0] }
; { "arg00": [0, 0, 0, 0, 101, 0, 0, 0, 0, 0, 0] }
; { "arg00": [0, 0, 0, 0, 108, 0, 0, 0, 0, 0, 0] }
; { "arg00": [0, 0, 0, 0, 110, 0, 0, 0, 0, 0, 0] }
; { "arg00": [0, 0, 0, 0, 114, 0, 0, 0, 0, 0, 0] }
; { "arg00": [0, 0, 0, 0, 69, 0, 0, 0, 0, 0, 0] }
; { "arg00": [0, 0, 0, 1, 0, 0, 0, 0, 0, 0, 0] }
; { "arg00": [0, 0, 0, 101, 0, 0, 0, 0, 0, 0, 0] }
; { "arg00": [0, 0, 0, 110, 0, 0, 0, 0, 0, 0, 0] }
; { "arg00": [0, 0, 0, 69, 0, 0, 0, 0, 0, 0, 0] }
; { "arg00": [0, 0, 1, 0, 0, 0, 0, 0, 0, 0, 0] }
; { "arg00": [0, 0, 101, 0, 0, 0, 0, 0, 0, 0, 0] }
; { "arg00": [0, 0, 104, 0, 0, 0, 0, 0, 0, 0, 0] }
; { "arg00": [0, 0, 110, 0, 0, 0, 0, 0, 0, 0, 0] }
; { "arg00": [0, 0, 118, 0, 0, 0, 0, 0, 0, 0, 0] }
; { "arg00": [0, 0, 69, 0, 0, 0, 0, 0, 0, 0, 0] }
; { "arg00": [0, 1, 0, 0, 0, 0, 0, 0, 0, 0, 0] }
; { "model_version": [1, 0, 0, 0] }
